33D32945 STP File, STP Format Version 1.0

SECTION Comment
Name    "i080-344"
Creator "Cees Duin"
Remark  "Incidence graph"
END

SECTION Graph
Nodes 80
Edges 632
E 1 7 305
E 1 9 292
E 1 11 298
E 1 15 300
E 1 20 304
E 1 22 199
E 1 24 200
E 1 27 200
E 1 30 200
E 1 34 201
E 1 39 205
E 1 40 200
E 1 45 195
E 1 49 198
E 1 53 194
E 1 58 200
E 1 59 192
E 1 62 203
E 1 66 198
E 1 68 204
E 2 4 299
E 2 7 306
E 2 8 300
E 2 15 305
E 2 17 300
E 2 20 302
E 2 32 198
E 2 35 197
E 2 36 203
E 2 47 192
E 2 48 205
E 2 56 200
E 2 57 198
E 2 60 199
E 2 62 206
E 2 64 204
E 2 65 199
E 3 4 303
E 3 10 298
E 3 11 311
E 3 21 196
E 3 27 199
E 3 32 195
E 3 43 199
E 3 64 194
E 4 8 300
E 4 9 298
E 4 10 299
E 4 11 296
E 4 12 299
E 4 15 304
E 4 18 307
E 4 25 198
E 4 37 195
E 4 38 199
E 4 40 203
E 4 46 193
E 4 60 193
E 4 61 188
E 4 66 202
E 4 71 199
E 4 74 202
E 4 75 193
E 5 16 310
E 5 18 305
E 5 19 311
E 5 31 201
E 5 37 197
E 5 46 197
E 5 55 201
E 5 60 199
E 5 67 206
E 5 74 192
E 5 78 207
E 6 18 300
E 6 33 198
E 6 42 201
E 6 45 192
E 6 51 194
E 6 53 207
E 6 58 209
E 6 68 209
E 6 69 200
E 6 71 209
E 6 74 198
E 6 77 207
E 7 8 302
E 7 15 295
E 7 18 304
E 7 23 195
E 7 37 200
E 7 40 198
E 7 45 199
E 7 48 191
E 7 54 201
E 7 67 210
E 7 68 201
E 7 73 197
E 8 15 305
E 8 24 204
E 8 30 201
E 8 31 202
E 8 32 198
E 8 36 191
E 8 38 202
E 8 40 199
E 8 47 203
E 8 54 198
E 8 56 194
E 8 65 195
E 8 66 201
E 8 68 202
E 8 75 202
E 8 79 193
E 9 15 300
E 9 21 200
E 9 25 201
E 9 27 203
E 9 28 194
E 9 34 200
E 9 38 208
E 9 40 200
E 9 44 200
E 9 46 197
E 9 48 205
E 9 59 201
E 9 66 186
E 9 69 204
E 9 71 198
E 9 73 198
E 9 74 202
E 9 77 214
E 10 17 305
E 10 19 310
E 10 22 203
E 10 26 196
E 10 28 199
E 10 38 195
E 10 39 204
E 10 49 200
E 10 51 200
E 10 61 202
E 10 65 201
E 10 78 195
E 11 23 201
E 11 45 202
E 11 52 208
E 11 54 199
E 11 55 203
E 11 57 202
E 11 60 203
E 11 70 196
E 11 75 201
E 11 76 200
E 11 77 196
E 11 78 193
E 11 80 191
E 12 20 295
E 12 25 193
E 12 26 200
E 12 33 201
E 12 37 205
E 12 41 200
E 12 44 192
E 12 45 195
E 12 49 213
E 12 50 210
E 12 53 204
E 12 58 195
E 12 61 202
E 12 68 213
E 12 71 197
E 12 73 205
E 12 80 195
E 13 17 303
E 13 33 197
E 13 36 202
E 13 42 200
E 13 48 203
E 13 58 198
E 13 60 196
E 13 62 201
E 13 63 199
E 13 65 199
E 13 73 210
E 13 77 197
E 13 78 201
E 13 80 207
E 14 17 292
E 14 22 205
E 14 39 211
E 14 46 195
E 14 52 204
E 14 55 195
E 14 58 201
E 14 64 203
E 14 70 202
E 14 76 197
E 14 80 199
E 15 23 201
E 15 30 191
E 15 32 203
E 15 38 200
E 15 39 210
E 15 41 197
E 15 43 198
E 15 44 196
E 15 46 199
E 15 51 207
E 15 59 200
E 15 63 203
E 15 68 194
E 15 71 204
E 15 80 193
E 16 18 297
E 16 33 203
E 16 45 206
E 16 47 199
E 16 49 204
E 16 50 203
E 16 55 203
E 16 56 205
E 16 69 192
E 16 71 192
E 16 75 206
E 16 77 203
E 16 78 201
E 17 18 305
E 17 23 195
E 17 28 201
E 17 29 202
E 17 37 198
E 17 42 198
E 17 53 200
E 17 56 190
E 17 62 203
E 17 73 206
E 17 76 200
E 17 80 195
E 18 22 203
E 18 28 199
E 18 37 200
E 18 49 203
E 18 54 202
E 18 55 200
E 18 64 197
E 18 66 204
E 18 68 205
E 18 70 203
E 19 22 198
E 19 53 203
E 19 57 188
E 19 60 206
E 19 65 196
E 19 70 203
E 19 73 192
E 19 77 201
E 20 24 196
E 20 27 198
E 20 42 200
E 20 43 202
E 20 64 195
E 20 70 199
E 21 22 103
E 21 23 95
E 21 24 99
E 21 28 112
E 21 31 95
E 21 32 94
E 21 36 98
E 21 41 98
E 21 42 93
E 21 44 99
E 21 63 98
E 21 64 97
E 21 67 96
E 21 71 87
E 21 74 97
E 21 76 91
E 21 78 99
E 21 80 93
E 22 27 97
E 22 29 93
E 22 33 95
E 22 34 102
E 22 35 92
E 22 42 98
E 22 46 93
E 22 67 103
E 22 68 94
E 23 24 104
E 23 28 89
E 23 29 98
E 23 34 99
E 23 37 91
E 23 38 95
E 23 39 98
E 23 42 94
E 23 43 106
E 23 46 101
E 23 67 95
E 23 73 103
E 23 76 110
E 23 77 96
E 23 78 100
E 24 27 106
E 24 29 91
E 24 33 101
E 24 39 98
E 24 42 102
E 24 43 101
E 24 44 99
E 24 46 98
E 24 49 97
E 24 51 107
E 24 53 101
E 24 63 100
E 24 71 96
E 24 76 104
E 24 77 96
E 25 27 101
E 25 34 107
E 25 43 104
E 25 45 102
E 25 46 92
E 25 56 107
E 25 60 90
E 25 65 103
E 25 72 106
E 25 76 102
E 25 79 98
E 26 33 111
E 26 38 100
E 26 62 93
E 26 63 96
E 26 64 109
E 26 65 105
E 27 36 92
E 27 42 98
E 27 43 104
E 27 55 99
E 27 57 100
E 27 59 101
E 27 63 102
E 27 65 95
E 27 66 94
E 27 69 101
E 27 72 110
E 27 77 109
E 27 79 103
E 28 33 101
E 28 45 94
E 28 47 102
E 28 49 103
E 28 51 98
E 28 53 96
E 28 54 106
E 28 58 110
E 28 68 99
E 28 72 92
E 28 73 103
E 29 35 100
E 29 37 96
E 29 38 102
E 29 45 98
E 29 56 96
E 29 57 100
E 29 61 95
E 29 70 111
E 29 73 107
E 29 75 102
E 29 76 104
E 29 79 102
E 29 80 90
E 30 40 97
E 30 42 97
E 30 49 104
E 30 53 92
E 30 64 100
E 30 65 103
E 30 67 88
E 30 71 101
E 30 80 98
E 31 35 103
E 31 36 108
E 31 37 96
E 31 40 101
E 31 44 104
E 31 45 94
E 31 52 101
E 31 53 104
E 31 75 96
E 32 35 104
E 32 36 112
E 32 42 99
E 32 43 97
E 32 44 99
E 32 45 104
E 32 47 96
E 32 48 94
E 32 61 104
E 32 68 103
E 32 70 96
E 32 71 91
E 32 74 107
E 32 78 103
E 33 41 103
E 33 49 98
E 33 62 98
E 33 69 100
E 33 78 96
E 34 36 96
E 34 37 95
E 34 38 99
E 34 51 97
E 34 54 105
E 34 61 99
E 34 68 99
E 35 36 101
E 35 50 90
E 35 51 99
E 35 55 89
E 35 74 97
E 36 37 109
E 36 45 97
E 36 50 87
E 36 54 100
E 36 57 104
E 36 63 105
E 36 68 99
E 36 74 97
E 36 75 108
E 36 78 97
E 36 80 93
E 37 40 103
E 37 43 105
E 37 51 100
E 37 71 97
E 37 72 98
E 37 78 96
E 37 79 108
E 38 45 104
E 38 50 99
E 38 66 99
E 38 69 99
E 38 70 93
E 39 43 99
E 39 45 94
E 39 64 106
E 39 65 100
E 39 69 92
E 39 72 103
E 40 42 97
E 40 46 109
E 40 56 92
E 40 59 94
E 40 64 98
E 40 76 106
E 41 47 107
E 41 51 90
E 41 55 97
E 41 58 95
E 41 61 106
E 41 68 103
E 41 74 98
E 42 46 82
E 42 55 107
E 42 56 104
E 42 59 92
E 42 64 107
E 42 66 102
E 43 47 96
E 43 52 102
E 43 54 101
E 43 56 101
E 43 58 102
E 43 61 106
E 43 63 102
E 43 68 97
E 43 69 94
E 43 78 94
E 44 45 103
E 44 47 94
E 44 49 90
E 44 51 98
E 44 63 90
E 44 64 106
E 44 72 108
E 44 77 102
E 44 79 97
E 45 53 98
E 45 54 95
E 45 60 93
E 45 61 98
E 45 65 93
E 45 67 97
E 45 68 92
E 45 80 96
E 46 47 83
E 46 50 107
E 46 62 96
E 46 65 97
E 46 67 110
E 46 70 100
E 46 71 113
E 46 74 96
E 46 75 104
E 47 54 103
E 47 60 93
E 47 61 99
E 47 72 95
E 48 51 99
E 48 52 96
E 48 59 100
E 48 65 97
E 48 73 102
E 48 78 107
E 48 79 110
E 48 80 98
E 49 53 104
E 49 60 99
E 49 63 103
E 49 65 96
E 49 70 99
E 49 72 95
E 49 73 101
E 49 80 99
E 50 52 119
E 50 54 97
E 50 63 105
E 50 64 103
E 50 65 92
E 50 71 104
E 50 72 102
E 50 79 100
E 51 52 98
E 51 55 106
E 51 58 91
E 51 61 90
E 51 67 101
E 51 69 99
E 51 72 96
E 51 78 93
E 52 56 102
E 52 59 100
E 52 65 101
E 52 72 100
E 52 76 99
E 52 80 97
E 53 55 105
E 53 57 96
E 53 58 99
E 53 61 92
E 53 69 104
E 53 78 103
E 53 80 99
E 54 56 99
E 54 60 96
E 54 64 102
E 54 70 102
E 54 77 102
E 55 65 105
E 55 75 95
E 55 79 108
E 56 57 108
E 56 63 98
E 56 66 101
E 56 76 98
E 56 79 101
E 57 63 98
E 57 65 100
E 57 72 92
E 57 75 91
E 57 80 102
E 58 62 88
E 58 67 99
E 58 74 94
E 58 76 103
E 59 67 100
E 59 68 102
E 59 69 94
E 59 73 94
E 59 75 101
E 59 76 96
E 59 78 101
E 60 63 102
E 60 64 99
E 60 66 92
E 60 67 105
E 60 68 108
E 60 69 95
E 60 71 101
E 60 76 98
E 60 79 94
E 61 63 96
E 61 68 97
E 61 71 101
E 61 76 96
E 62 73 104
E 62 79 99
E 63 76 95
E 63 77 100
E 63 78 104
E 64 65 100
E 64 74 108
E 64 75 99
E 65 72 91
E 65 73 111
E 65 74 104
E 65 75 98
E 65 78 104
E 66 77 98
E 66 78 96
E 67 72 103
E 67 74 102
E 68 74 99
E 68 77 94
E 68 78 104
E 69 70 99
E 69 74 95
E 69 79 101
E 70 71 99
E 70 78 97
E 71 78 99
E 72 73 97
E 73 79 97
E 74 79 101
E 75 79 102
E 77 78 98
E 77 79 98
E 78 80 101
E 79 80 99
END

SECTION Terminals
Terminals 20
T 1
T 2
T 3
T 4
T 5
T 6
T 7
T 8
T 9
T 10
T 11
T 12
T 13
T 14
T 15
T 16
T 17
T 18
T 19
T 20
END

EOF
